51
2 43 12 
4 59 1 9 35 
3 21 64 33 
3 42 4 109 
2 70 100 
3 32 73 46 
2 92 93 
2 36 31 
2 84 3 
2 111 110 
2 34 68 
2 72 67 
2 49 29 
3 79 99 50 
2 74 56 
2 81 102 
3 82 118 28 
2 71 77 
2 18 51 
2 69 89 
3 108 60 103 
3 30 85 37 
2 86 27 
2 44 10 
3 104 61 22 
2 80 25 
2 16 120 
2 45 2 
3 23 13 20 
3 98 19 117 
4 65 11 114 39 
2 109 115 
2 96 14 
2 101 41 
2 53 6 
2 113 38 
2 62 26 
2 90 91 
2 17 57 
2 111 78 
3 54 47 66 
2 106 7 
2 112 40 
2 75 88 
3 76 52 107 
2 55 24 
2 42 105 
3 63 116 58 
3 15 48 119 
2 97 8 
2 87 83 
